Integracao/Dados/Otimizacao/P10N6/p10n6.lp
\ Using Xpress-MP extensions
Minimize
 x(1) + x(2) + 2 x(3) + 2 x(4) + 2 x(5) + 2 x(6) + 2 x(7) + 2 x(8) + 2 x(9) + 
2 x(10) + 2 x(11) + 2 x(12) + 2 x(13) + 2 x(14) + 2 x(15) + 2 x(16) + 2 x(17) + 
3 x(18) + 3 x(19) + 3 x(20) + 3 x(21) + 3 x(22) + 3 x(23) + 3 x(24) + 3 x(25) + 
3 x(26) + 3 x(27) + 3 x(28) + 3 x(29) + 3 x(30) + 3 x(31) + 3 x(32) + 3 x(33) + 
3 x(34) + 3 x(35) + 3 x(36) + 3 x(37) + 3 x(38) + 3 x(39) + 3 x(40) + 3 x(41) + 
3 x(42) + 3 x(43) + 3 x(44) + 3 x(45) + 3 x(46) + 4 x(47) + 4 x(48) + 4 x(49) + 
4 x(50) + 4 x(51) + 4 x(52) + 4 x(53) + 4 x(54) + 4 x(55) + 4 x(56) + 4 x(57) + 
4 x(58) + 4 x(59) + 4 x(60) + 4 x(61) + 4 x(62) + 4 x(63) + 4 x(64) + 4 x(65) + 
4 x(66) + 4 x(67) + 4 x(68) + 4 x(69) + 4 x(70) + 4 x(71) + 4 x(72) + 4 x(73) + 
4 x(74) + 4 x(75) + 4 x(76) + 4 x(77) + 4 x(78) + 4 x(79) + 5 x(80) + 5 x(81) + 
5 x(82) + 5 x(83) + 5 x(84) + 5 x(85) + 5 x(86) + 5 x(87) + 5 x(88) + 5 x(89) + 
5 x(90) + 5 x(91) + 5 x(92) + 5 x(93) + 5 x(94) + 5 x(95) + 5 x(96) + 5 x(97) + 
5 x(98) + 5 x(99) + 5 x(100) + 5 x(101) + 5 x(102) + 5 x(103) + 5 x(104) + 5 x(105) + 
5 x(106) + 5 x(107) + 5 x(108) + 5 x(109) + 5 x(110) + 5 x(111) + 5 x(112) + 
5 x(113) + 5 x(114) + 5 x(115) + 5 x(116) + 5 x(117) + 5 x(118) + 5 x(119) + 
5 x(120) + 5 x(121) + 5 x(122) + 5 x(123) + 5 x(124) + 5 x(125) + 6 x(126) + 
6 x(127) + 6 x(128) + 6 x(129) + 6 x(130) + 6 x(131) + 6 x(132) + 6 x(133) + 
6 x(134) + 6 x(135) + 6 x(136) + 6 x(137) + 6 x(138) + 6 x(139) + 6 x(140) + 
6 x(141) + 6 x(142) + 6 x(143) + 6 x(144) + 6 x(145) + 6 x(146) + 6 x(147) + 
6 x(148) + 6 x(149) + 6 x(150) + 6 x(151) + 6 x(152) + 6 x(153) + 6 x(154) + 
6 x(155) + 6 x(156) + 6 x(157) + 6 x(158) + 6 x(159) + 6 x(160) + 6 x(161) + 
6 x(162) + 8 x(163) + 9 x(164)

Subject To
_R1: x(21) + x(22) + x(49) + x(52) + x(62) + x(67) + x(75) + x(85) + x(89) + 
x(93) + x(97) + x(98) + x(101) + x(103) + x(104) + x(108) + x(113) + x(115) + 
x(127) + x(133) + x(138) + x(139) + x(149) + x(153) + x(157) >= 1
_R2: x(4) + x(5) + x(6) + x(7) + x(8) + x(9) + x(10) + x(18) + x(19) + x(20) + 
x(30) + x(32) + x(35) + x(39) + x(40) + x(41) + x(43) + x(44) + x(45) + x(46) + 
x(48) + x(50) + x(54) + x(56) + x(57) + x(59) + x(60) + x(61) + x(63) + x(77) + 
x(81) + x(83) + x(88) + x(91) + x(95) + x(107) + x(109) + x(111) + x(114) + 
x(117) + x(118) + x(119) + x(120) + x(122) + x(124) + x(125) + x(126) + x(131) + 
x(134) + x(135) + x(137) + x(140) + x(142) + x(144) + x(145) + x(146) + x(151) + 
x(152) + x(154) + x(158) >= 1
_R3: x(1) + x(23) + x(24) + x(25) + x(26) + x(38) + x(47) + x(51) + x(64) + 
x(69) + x(72) + x(79) + x(99) + x(100) + x(102) + x(105) + x(106) + x(110) + 
x(112) + x(116) + x(123) + x(128) + x(130) + x(150) + x(160) + x(164) >= 1
_R4: x(2) + x(3) + x(11) + x(12) + x(13) + x(14) + x(15) + x(16) + x(17) + x(28) + 
x(29) + x(31) + x(33) + x(34) + x(36) + x(37) + x(53) + x(55) + x(58) + x(65) + 
x(66) + x(68) + x(70) + x(71) + x(73) + x(74) + x(76) + x(78) + x(80) + x(82) + 
x(84) + x(86) + x(87) + x(90) + x(92) + x(94) + x(96) + x(121) + x(129) + x(132) + 
x(136) + x(141) + x(143) + x(147) + x(148) + x(155) + x(156) + x(159) + x(161) + 
x(162) + x(163) >= 1
_R5: x(5) + x(6) + x(8) + x(12) + x(13) + x(15) + x(18) + x(28) + x(33) + x(36) + 
x(39) + x(44) + x(45) + x(48) + x(53) + x(54) + x(57) + x(60) + x(65) + x(70) + 
x(77) + x(80) + x(82) + x(83) + x(84) + x(87) + x(88) + x(90) + x(91) + x(96) + 
x(109) + x(117) + x(122) + x(124) + x(126) + x(129) + x(131) + x(135) + x(136) + 
x(137) + x(140) + x(141) + x(142) + x(144) + x(147) + x(148) + x(151) + x(152) + 
x(155) + x(156) + x(159) + x(162) >= 1
_R6: x(21) + x(22) + x(49) + x(52) + x(62) + x(67) + x(75) + x(85) + x(89) + 
x(93) + x(97) + x(98) + x(101) + x(103) + x(104) + x(108) + x(113) + x(115) + 
x(127) + x(133) + x(138) + x(139) + x(149) + x(153) + x(157) >= 1
_R7: x(2) + x(3) + x(4) + x(7) + x(9) + x(10) + x(11) + x(14) + x(16) + x(17) + 
x(19) + x(20) + x(29) + x(31) + x(32) + x(34) + x(35) + x(37) + x(40) + x(41) + 
x(43) + x(46) + x(50) + x(55) + x(56) + x(58) + x(59) + x(61) + x(63) + x(66) + 
x(68) + x(71) + x(73) + x(74) + x(76) + x(78) + x(81) + x(86) + x(92) + x(94) + 
x(95) + x(107) + x(111) + x(114) + x(118) + x(119) + x(120) + x(121) + x(125) + 
x(132) + x(134) + x(143) + x(145) + x(146) + x(154) + x(158) + x(161) >= 1
_R8: x(1) + x(23) + x(24) + x(25) + x(26) + x(38) + x(47) + x(51) + x(64) + 
x(69) + x(72) + x(79) + x(99) + x(100) + x(102) + x(105) + x(106) + x(110) + 
x(112) + x(116) + x(123) + x(128) + x(130) + x(150) + x(160) + x(164) >= 1
_R9: x(27) + x(30) + x(163) >= 1
_R10: x(23) + x(26) + x(49) + x(52) + x(64) + x(79) + x(85) + x(89) + x(93) + 
x(99) + x(101) + x(103) + x(105) + x(106) + x(110) + x(113) + x(116) + x(128) + 
x(133) + x(138) + x(139) + x(150) + x(153) + x(160) >= 1
_R11: x(5) + x(6) + x(8) + x(12) + x(13) + x(15) + x(18) + x(28) + x(33) + x(36) + 
x(39) + x(44) + x(45) + x(48) + x(53) + x(54) + x(57) + x(60) + x(65) + x(70) + 
x(77) + x(80) + x(82) + x(83) + x(84) + x(87) + x(88) + x(90) + x(91) + x(96) + 
x(109) + x(117) + x(122) + x(124) + x(126) + x(129) + x(131) + x(135) + x(136) + 
x(137) + x(140) + x(141) + x(142) + x(144) + x(147) + x(148) + x(151) + x(152) + 
x(155) + x(156) + x(159) + x(162) >= 1
_R12: x(1) + x(21) + x(22) + x(24) + x(25) + x(38) + x(47) + x(51) + x(62) + 
x(69) + x(72) + x(75) + x(97) + x(98) + x(100) + x(102) + x(104) + x(108) + 
x(112) + x(115) + x(123) + x(127) + x(130) + x(149) + x(157) >= 1
_R13: x(2) + x(3) + x(4) + x(7) + x(9) + x(10) + x(11) + x(14) + x(16) + x(17) + 
x(19) + x(20) + x(29) + x(31) + x(32) + x(34) + x(35) + x(37) + x(40) + x(41) + 
x(43) + x(46) + x(50) + x(55) + x(56) + x(58) + x(59) + x(61) + x(63) + x(66) + 
x(68) + x(71) + x(73) + x(74) + x(76) + x(78) + x(81) + x(86) + x(92) + x(94) + 
x(95) + x(107) + x(111) + x(114) + x(118) + x(119) + x(120) + x(121) + x(125) + 
x(132) + x(134) + x(143) + x(145) + x(146) + x(154) + x(158) + x(161) >= 1
_R14: x(42) + x(67) + x(164) >= 1
_R15: x(27) + x(30) + x(163) >= 1
_R16: x(5) + x(7) + x(9) + x(12) + x(14) + x(16) + x(19) + x(29) + x(37) + x(39) + 
x(44) + x(46) + x(50) + x(55) + x(56) + x(57) + x(61) + x(66) + x(71) + x(80) + 
x(82) + x(83) + x(86) + x(87) + x(92) + x(95) + x(96) + x(107) + x(111) + x(117) + 
x(122) + x(125) + x(126) + x(132) + x(134) + x(135) + x(136) + x(137) + x(140) + 
x(143) + x(145) + x(146) + x(147) + x(148) + x(151) + x(154) + x(155) + x(156) + 
x(161) + x(162) >= 1
_R17: x(23) + x(26) + x(49) + x(52) + x(64) + x(79) + x(85) + x(89) + x(93) + 
x(99) + x(101) + x(103) + x(105) + x(106) + x(110) + x(113) + x(116) + x(128) + 
x(133) + x(138) + x(139) + x(150) + x(153) + x(160) >= 1
_R18: x(2) + x(3) + x(4) + x(6) + x(8) + x(10) + x(11) + x(13) + x(15) + x(17) + 
x(18) + x(20) + x(28) + x(31) + x(34) + x(35) + x(36) + x(40) + x(41) + x(43) + 
x(45) + x(48) + x(53) + x(54) + x(58) + x(59) + x(60) + x(63) + x(65) + x(68) + 
x(70) + x(73) + x(74) + x(76) + x(78) + x(81) + x(84) + x(88) + x(90) + x(91) + 
x(94) + x(109) + x(114) + x(118) + x(119) + x(120) + x(121) + x(124) + x(129) + 
x(131) + x(141) + x(142) + x(144) + x(152) + x(158) + x(159) >= 1
_R19: x(1) + x(21) + x(22) + x(24) + x(25) + x(38) + x(47) + x(51) + x(62) + 
x(69) + x(72) + x(75) + x(97) + x(98) + x(100) + x(102) + x(104) + x(108) + 
x(112) + x(115) + x(123) + x(127) + x(130) + x(149) + x(157) >= 1
_R20: x(27) + x(30) + x(32) + x(33) + x(77) + x(163) >= 1
_R21: x(42) + x(67) + x(164) >= 1
_R22: x(24) + x(47) + x(49) + x(62) + x(64) + x(89) + x(97) + x(100) + x(101) + 
x(104) + x(105) + x(106) + x(112) + x(113) + x(123) + x(130) + x(133) + x(138) + 
x(149) + x(150) + x(157) + x(160) >= 1
_R23: x(5) + x(7) + x(9) + x(12) + x(14) + x(16) + x(19) + x(29) + x(37) + x(39) + 
x(44) + x(46) + x(50) + x(55) + x(56) + x(57) + x(61) + x(66) + x(71) + x(80) + 
x(82) + x(83) + x(86) + x(87) + x(92) + x(95) + x(96) + x(107) + x(111) + x(117) + 
x(122) + x(125) + x(126) + x(132) + x(134) + x(135) + x(136) + x(137) + x(140) + 
x(143) + x(145) + x(146) + x(147) + x(148) + x(151) + x(154) + x(155) + x(156) + 
x(161) + x(162) >= 1
_R24: x(1) + x(22) + x(23) + x(25) + x(38) + x(51) + x(52) + x(69) + x(72) + 
x(75) + x(79) + x(93) + x(98) + x(99) + x(102) + x(103) + x(108) + x(110) + 
x(115) + x(116) + x(127) + x(128) + x(139) + x(153) >= 1
_R25: x(2) + x(3) + x(4) + x(6) + x(8) + x(10) + x(11) + x(13) + x(15) + x(17) + 
x(18) + x(20) + x(28) + x(31) + x(34) + x(35) + x(36) + x(40) + x(41) + x(43) + 
x(45) + x(48) + x(53) + x(54) + x(58) + x(59) + x(60) + x(63) + x(65) + x(68) + 
x(70) + x(73) + x(74) + x(76) + x(78) + x(81) + x(84) + x(88) + x(90) + x(91) + 
x(94) + x(109) + x(114) + x(118) + x(119) + x(120) + x(121) + x(124) + x(129) + 
x(131) + x(141) + x(142) + x(144) + x(152) + x(158) + x(159) >= 1
_R26: x(21) + x(26) + x(42) + x(67) + x(85) + x(164) >= 1
_R27: x(27) + x(30) + x(32) + x(33) + x(77) + x(163) >= 1
_R28: x(6) + x(7) + x(10) + x(13) + x(14) + x(17) + x(20) + x(31) + x(45) + 
x(46) + x(58) + x(59) + x(60) + x(61) + x(68) + x(73) + x(82) + x(83) + x(84) + 
x(86) + x(87) + x(94) + x(96) + x(114) + x(117) + x(118) + x(120) + x(124) + 
x(125) + x(126) + x(129) + x(131) + x(132) + x(134) + x(135) + x(141) + x(142) + 
x(143) + x(144) + x(145) + x(146) + x(147) + x(156) + x(158) + x(159) + x(161) + 
x(162) >= 1
_R29: x(24) + x(47) + x(49) + x(62) + x(64) + x(89) + x(97) + x(100) + x(101) + 
x(104) + x(105) + x(106) + x(112) + x(113) + x(123) + x(130) + x(133) + x(138) + 
x(149) + x(150) + x(157) + x(160) >= 1
_R30: x(2) + x(3) + x(4) + x(5) + x(8) + x(9) + x(11) + x(12) + x(15) + x(16) + 
x(18) + x(19) + x(28) + x(29) + x(34) + x(40) + x(41) + x(43) + x(44) + x(53) + 
x(54) + x(55) + x(56) + x(57) + x(63) + x(65) + x(66) + x(70) + x(71) + x(74) + 
x(76) + x(80) + x(81) + x(88) + x(90) + x(91) + x(92) + x(95) + x(107) + x(109) + 
x(111) + x(119) + x(121) + x(122) + x(136) + x(137) + x(140) + x(148) + x(151) + 
x(152) + x(154) + x(155) >= 1
_R31: x(1) + x(22) + x(23) + x(25) + x(38) + x(51) + x(52) + x(69) + x(72) + 
x(75) + x(79) + x(93) + x(98) + x(99) + x(102) + x(103) + x(108) + x(110) + 
x(115) + x(116) + x(127) + x(128) + x(139) + x(153) >= 1
_R32: x(27) + x(30) + x(32) + x(33) + x(35) + x(36) + x(37) + x(39) + x(48) + 
x(50) + x(77) + x(78) + x(163) >= 1
_R33: x(21) + x(26) + x(42) + x(67) + x(85) + x(164) >= 1
_R34: x(25) + x(51) + x(52) + x(62) + x(64) + x(89) + x(102) + x(103) + x(104) + 
x(105) + x(108) + x(110) + x(112) + x(113) + x(127) + x(128) + x(130) + x(139) + 
x(149) + x(150) >= 1
_R35: x(6) + x(7) + x(10) + x(13) + x(14) + x(17) + x(20) + x(31) + x(45) + 
x(46) + x(58) + x(59) + x(60) + x(61) + x(68) + x(73) + x(82) + x(83) + x(84) + 
x(86) + x(87) + x(94) + x(96) + x(114) + x(117) + x(118) + x(120) + x(124) + 
x(125) + x(126) + x(129) + x(131) + x(132) + x(134) + x(135) + x(141) + x(142) + 
x(143) + x(144) + x(145) + x(146) + x(147) + x(156) + x(158) + x(159) + x(161) + 
x(162) >= 1
_R36: x(1) + x(22) + x(23) + x(24) + x(38) + x(47) + x(49) + x(72) + x(75) + 
x(79) + x(93) + x(97) + x(98) + x(99) + x(100) + x(101) + x(106) + x(133) + 
x(153) + x(157) + x(160) >= 1
_R37: x(2) + x(3) + x(4) + x(5) + x(8) + x(9) + x(11) + x(12) + x(15) + x(16) + 
x(18) + x(19) + x(28) + x(29) + x(34) + x(40) + x(41) + x(43) + x(44) + x(53) + 
x(54) + x(55) + x(56) + x(57) + x(63) + x(65) + x(66) + x(70) + x(71) + x(74) + 
x(76) + x(80) + x(81) + x(88) + x(90) + x(91) + x(92) + x(95) + x(107) + x(109) + 
x(111) + x(119) + x(121) + x(122) + x(136) + x(137) + x(140) + x(148) + x(151) + 
x(152) + x(154) + x(155) >= 1
_R38: x(21) + x(26) + x(42) + x(67) + x(69) + x(85) + x(115) + x(116) + x(123) + 
x(138) + x(164) >= 1
_R39: x(27) + x(30) + x(32) + x(33) + x(35) + x(36) + x(37) + x(39) + x(48) + 
x(50) + x(77) + x(78) + x(163) >= 1
_R40: x(8) + x(9) + x(10) + x(15) + x(16) + x(17) + x(18) + x(19) + x(20) + 
x(34) + x(63) + x(74) + x(76) + x(81) + x(87) + x(90) + x(92) + x(94) + x(96) + 
x(119) + x(122) + x(124) + x(125) + x(129) + x(131) + x(132) + x(134) + x(136) + 
x(137) + x(141) + x(142) + x(143) + x(145) + x(148) + x(151) + x(152) + x(154) + 
x(155) + x(158) + x(159) + x(161) >= 1
_R41: x(25) + x(51) + x(52) + x(62) + x(64) + x(89) + x(102) + x(103) + x(104) + 
x(105) + x(108) + x(110) + x(112) + x(113) + x(127) + x(128) + x(130) + x(139) + 
x(149) + x(150) >= 1
_R42: x(2) + x(3) + x(4) + x(5) + x(6) + x(7) + x(11) + x(12) + x(13) + x(14) + 
x(28) + x(29) + x(31) + x(40) + x(43) + x(44) + x(45) + x(46) + x(54) + x(56) + 
x(59) + x(65) + x(66) + x(68) + x(70) + x(71) + x(73) + x(80) + x(84) + x(86) + 
x(91) + x(107) + x(109) + x(111) + x(114) + x(117) + x(118) + x(126) + x(135) + 
x(140) + x(144) + x(146) + x(147) + x(156) + x(162) >= 1
_R43: x(1) + x(22) + x(23) + x(24) + x(38) + x(47) + x(49) + x(72) + x(75) + 
x(79) + x(93) + x(97) + x(98) + x(99) + x(100) + x(101) + x(106) + x(133) + 
x(153) + x(157) + x(160) >= 1
_R44: x(27) + x(30) + x(32) + x(33) + x(35) + x(36) + x(37) + x(39) + x(41) + 
x(48) + x(50) + x(53) + x(55) + x(57) + x(58) + x(60) + x(61) + x(77) + x(78) + 
x(82) + x(83) + x(88) + x(95) + x(120) + x(121) + x(163) >= 1
_R45: x(21) + x(26) + x(42) + x(67) + x(69) + x(85) + x(115) + x(116) + x(123) + 
x(138) + x(164) >= 1
_R46: x(38) + x(98) + x(99) + x(100) + x(101) + x(102) + x(103) + x(104) + x(105) + 
x(127) + x(128) + x(130) + x(153) + x(157) + x(160) >= 1
_R47: x(8) + x(9) + x(10) + x(15) + x(16) + x(17) + x(18) + x(19) + x(20) + 
x(34) + x(63) + x(74) + x(76) + x(81) + x(87) + x(90) + x(92) + x(94) + x(96) + 
x(119) + x(122) + x(124) + x(125) + x(129) + x(131) + x(132) + x(134) + x(136) + 
x(137) + x(141) + x(142) + x(143) + x(145) + x(148) + x(151) + x(152) + x(154) + 
x(155) + x(158) + x(159) + x(161) >= 1
_R48: x(1) + x(22) + x(23) + x(24) + x(25) + x(93) + x(97) + x(106) + x(108) + 
x(110) + x(112) + x(113) + x(133) + x(139) + x(149) + x(150) >= 1
_R49: x(2) + x(3) + x(4) + x(5) + x(6) + x(7) + x(11) + x(12) + x(13) + x(14) + 
x(28) + x(29) + x(31) + x(40) + x(43) + x(44) + x(45) + x(46) + x(54) + x(56) + 
x(59) + x(65) + x(66) + x(68) + x(70) + x(71) + x(73) + x(80) + x(84) + x(86) + 
x(91) + x(107) + x(109) + x(111) + x(114) + x(117) + x(118) + x(126) + x(135) + 
x(140) + x(144) + x(146) + x(147) + x(156) + x(162) >= 1
_R50: x(21) + x(26) + x(42) + x(47) + x(49) + x(51) + x(52) + x(62) + x(64) + 
x(67) + x(69) + x(72) + x(75) + x(79) + x(85) + x(89) + x(115) + x(116) + x(123) + 
x(138) + x(164) >= 1
_R51: x(27) + x(30) + x(32) + x(33) + x(35) + x(36) + x(37) + x(39) + x(41) + 
x(48) + x(50) + x(53) + x(55) + x(57) + x(58) + x(60) + x(61) + x(77) + x(78) + 
x(82) + x(83) + x(88) + x(95) + x(120) + x(121) + x(163) >= 1
_R52: x(11) + x(12) + x(13) + x(14) + x(15) + x(16) + x(17) + x(40) + x(70) + 
x(71) + x(73) + x(76) + x(109) + x(111) + x(114) + x(117) + x(119) + x(122) + 
x(124) + x(125) + x(140) + x(144) + x(146) + x(147) + x(152) + x(154) + x(155) + 
x(158) + x(159) + x(161) >= 1
_R53: x(38) + x(98) + x(99) + x(100) + x(101) + x(102) + x(103) + x(104) + x(105) + 
x(127) + x(128) + x(130) + x(153) + x(157) + x(160) >= 1
_R54: x(2) + x(4) + x(5) + x(6) + x(7) + x(8) + x(9) + x(10) + x(28) + x(29) + 
x(31) + x(34) + x(54) + x(56) + x(59) + x(63) + x(80) + x(84) + x(86) + x(90) + 
x(92) + x(94) + x(96) + x(126) + x(136) + x(137) + x(141) + x(142) + x(143) + 
x(145) + x(162) >= 1
_R55: x(1) + x(22) + x(23) + x(24) + x(25) + x(93) + x(97) + x(106) + x(108) + 
x(110) + x(112) + x(113) + x(133) + x(139) + x(149) + x(150) >= 1
_R56: x(3) + x(18) + x(19) + x(20) + x(27) + x(30) + x(32) + x(33) + x(35) + 
x(36) + x(37) + x(39) + x(41) + x(43) + x(44) + x(45) + x(46) + x(48) + x(50) + 
x(53) + x(55) + x(57) + x(58) + x(60) + x(61) + x(65) + x(66) + x(68) + x(74) + 
x(77) + x(78) + x(81) + x(82) + x(83) + x(87) + x(88) + x(91) + x(95) + x(107) + 
x(118) + x(120) + x(121) + x(129) + x(131) + x(132) + x(134) + x(135) + x(148) + 
x(151) + x(156) + x(163) >= 1
_R57: x(21) + x(26) + x(42) + x(47) + x(49) + x(51) + x(52) + x(62) + x(64) + 
x(67) + x(69) + x(72) + x(75) + x(79) + x(85) + x(89) + x(115) + x(116) + x(123) + 
x(138) + x(164) >= 1

Bounds
x(27) = 1
x(42) = 1

Binaries
x(1) x(2) x(3) x(4) x(5) x(6) x(7) x(8) x(9) x(10) x(11) x(12) x(13) x(14) x(15) 
x(16) x(17) x(18) x(19) x(20) x(21) x(22) x(23) x(24) x(25) x(26) x(27) x(28) 
x(29) x(30) x(31) x(32) x(33) x(34) x(35) x(36) x(37) x(38) x(39) x(40) x(41) 
x(42) x(43) x(44) x(45) x(46) x(47) x(48) x(49) x(50) x(51) x(52) x(53) x(54) 
x(55) x(56) x(57) x(58) x(59) x(60) x(61) x(62) x(63) x(64) x(65) x(66) x(67) 
x(68) x(69) x(70) x(71) x(72) x(73) x(74) x(75) x(76) x(77) x(78) x(79) x(80) 
x(81) x(82) x(83) x(84) x(85) x(86) x(87) x(88) x(89) x(90) x(91) x(92) x(93) 
x(94) x(95) x(96) x(97) x(98) x(99) x(100) x(101) x(102) x(103) x(104) x(105) 
x(106) x(107) x(108) x(109) x(110) x(111) x(112) x(113) x(114) x(115) x(116) 
x(117) x(118) x(119) x(120) x(121) x(122) x(123) x(124) x(125) x(126) x(127) 
x(128) x(129) x(130) x(131) x(132) x(133) x(134) x(135) x(136) x(137) x(138) 
x(139) x(140) x(141) x(142) x(143) x(144) x(145) x(146) x(147) x(148) x(149) 
x(150) x(151) x(152) x(153) x(154) x(155) x(156) x(157) x(158) x(159) x(160) 
x(161) x(162) x(163) x(164) 

End
